p cnf 10 29
10 9 5 0
10 -9 3 0
-10 9 -3 0
10 -9 2 0
10 9 -1 0
-10 -8 -5 0
10 -7 3 0
-10 -7 3 0
10 -7 -2 0
-10 6 4 0
-10 -5 -2 0
-9 -8 7 0
-9 8 -4 0
-9 7 -5 0
-9 -7 -5 0
-9 7 -1 0
9 -4 -2 0
9 -3 2 0
8 7 -5 0
-8 6 -4 0
-8 6 -1 0
-7 -5 -2 0
7 -3 1 0
7 -3 -1 0
-5 4 3 0
-5 4 -1 0
5 -2 1 0
-4 3 2 0
-4 3 -1 0
